50
100
100
99
98
97
97
96
95
94
92
89
89
87
85
77
76
73
71
69
68
68
67
66
66
65
64
64
63
62
58
58
52
50
49
48
47
46
44
43
43
35
35
32
29
26
26
25
25
23
20
20
